p cnf 55 199
-1 5 6 7 0
-5 -6 0
-5 -7 0
-6 -7 0
1 -5 0
1 -6 0
1 -7 0
-2 8 9 10 0
-8 -9 0
-8 -10 0
-9 -10 0
2 -8 0
2 -9 0
2 -10 0
-3 11 12 13 0
-11 -12 0
-11 -13 0
-12 -13 0
3 -11 0
3 -12 0
3 -13 0
-4 14 15 16 0
-14 -15 0
-14 -16 0
-15 -16 0
4 -14 0
4 -15 0
4 -16 0
1 2 0
1 3 0
-1 3 2 0
-2 4 1 3 0
-3 1 4 2 0
-4 2 3 0
-1 1 0
-17 -1 1 0
-17 1 -1 0
17 1 1 0
17 -1 -1 0
-17 -2 3 0
-18 17 0
-18 -2 3 0
-18 2 -3 0
18 -17 2 3 0
18 -17 -2 -3 0
-18 -3 2 0
-19 18 0
-19 -3 2 0
-19 3 -2 0
19 -18 3 2 0
19 -18 -3 -2 0
-19 -4 4 0
-20 19 0
-20 -4 4 0
-20 4 -4 0
20 -19 4 4 0
20 -19 -4 -4 0
-6 0
-9 5 0
-12 5 8 0
-15 5 8 11 0
-7 0
-10 6 0
-13 6 9 0
-16 6 9 12 0
5 8 11 14 0
6 9 12 15 0
7 10 13 16 0
-21 5 6 0
-21 11 12 0
-21 -5 -11 0
-21 -6 -12 0
-22 5 6 0
-22 8 9 0
-22 -5 -8 0
-22 -6 -9 0
-23 8 9 0
-23 14 15 0
-23 -8 -14 0
-23 -9 -15 0
-24 8 9 0
-24 11 12 0
-24 -8 -11 0
-24 -9 -12 0
-25 11 12 0
-25 14 15 0
-25 -11 -14 0
-25 -12 -15 0
21 22 23 24 25 0
-26 5 7 0
-26 11 13 0
-26 -5 -11 0
-26 -7 -13 0
-27 5 7 0
-27 8 10 0
-27 -5 -8 0
-27 -7 -10 0
-28 8 10 0
-28 14 16 0
-28 -8 -14 0
-28 -10 -16 0
-29 8 10 0
-29 11 13 0
-29 -8 -11 0
-29 -10 -13 0
-30 11 13 0
-30 14 16 0
-30 -11 -14 0
-30 -13 -16 0
26 27 28 29 30 0
-31 6 7 0
-31 12 13 0
-31 -6 -12 0
-31 -7 -13 0
-32 6 7 0
-32 9 10 0
-32 -6 -9 0
-32 -7 -10 0
-33 9 10 0
-33 15 16 0
-33 -9 -15 0
-33 -10 -16 0
-34 9 10 0
-34 12 13 0
-34 -9 -12 0
-34 -10 -13 0
-35 12 13 0
-35 15 16 0
-35 -12 -15 0
-35 -13 -16 0
31 32 33 34 35 0
-36 1 0
36 -1 0
-37 2 0
-37 -1 0
37 -2 1 0
-38 3 0
-38 -1 0
-38 -2 0
38 -3 1 2 0
-39 4 0
-39 -1 0
-39 -2 0
-39 -3 0
39 -4 1 2 3 0
-36 5 0
-37 8 0
-38 11 0
-39 14 0
-36 40 0
36 -40 0
-37 42 0
37 -42 0
-38 44 0
38 -44 0
-39 46 0
39 -46 0
-40 41 0
-1 -44 41 0
-1 -42 41 0
-41 40 1 0
-41 40 44 42 0
-42 43 0
-2 -46 43 0
-2 -40 43 0
-2 -44 43 0
-43 42 2 0
-43 42 46 40 44 0
-44 45 0
-3 -40 45 0
-3 -46 45 0
-3 -42 45 0
-45 44 3 0
-45 44 40 46 42 0
-46 47 0
-4 -42 47 0
-4 -44 47 0
-47 46 4 0
-47 46 42 44 0
-1 41 0
-2 43 0
-3 45 0
-4 47 0
1 48 0
-48 49 0
2 -48 50 0
-50 51 0
3 -50 0
2 49 0
3 -49 51 0
4 -51 0
-1 52 0
-52 53 0
-2 -52 54 0
-54 55 0
-3 -54 0
-2 53 0
-3 -53 55 0
-4 -55 0
